Minimize
	value: tt

Subject to
tt + 1000 s_1_1 > 0.0
tt - t_1_1 - 1000.845241 s_1_1  + 0.422621 s_1_8  + 0.422621 s_1_7  > -991.769767
tt + 1000 s_2_1 > 0.0
tt - t_2_1 - 1000.819249 s_2_1  + 0.409624 s_2_8  + 0.409624 s_2_7  > -992.658028
tt + 1000 s_1_2 > 0.0
tt - t_1_2 - 1000.422621 s_1_2  + 0.422621 s_1_7  > -991.771456
tt + 1000 s_2_2 > 0.0
tt - t_2_2 - 1000.409624 s_2_2  + 0.409624 s_2_7  > -992.656364
tt + 1000 s_1_3 > 0.0
tt - t_1_3 - 1000.845241 s_1_3  + 0.422621 s_1_8  + 0.422621 s_1_7  > -999.720300
tt + 1000 s_2_3 > 0.0
tt - t_2_3 - 1000.819249 s_2_3  + 0.409624 s_2_8  + 0.409624 s_2_7  > -998.522583
tt + 1000 s_1_4 > 0.0
tt - t_1_4 - 1000.422621 s_1_4  + 0.422621 s_1_7  > -999.553189
tt + 1000 s_2_4 > 0.0
tt - t_2_4 - 1000.409624 s_2_4  + 0.409624 s_2_7  > -997.737556
tt + 1000 s_1_5 > 0.0
tt - t_1_5 - 1000.422621 s_1_5  + 0.422621 s_1_8  > -996.109711
tt + 1000 s_2_5 > 0.0
tt - t_2_5 - 1000.409624 s_2_5  + 0.409624 s_2_8  > -996.150847
tt + 1000 s_1_6 > 0.0
tt - t_1_6 - 1002.535723 s_1_6  + 0.422621 s_1_3  + 0.422621 s_1_4  + 0.422621 s_1_2  + 0.422621 s_1_7  + 0.422621 s_1_5  + 0.422621 s_1_1  > -999.825900
tt + 1000 s_2_6 > 0.0
tt - t_2_6 - 1002.457746 s_2_6  + 0.409624 s_2_3  + 0.409624 s_2_4  + 0.409624 s_2_2  + 0.409624 s_2_7  + 0.409624 s_2_5  + 0.409624 s_2_1  > -999.452889
tt + 1000 s_1_7 > 0.0
tt - t_1_7 - 1000.000000 s_1_7  > -988.934375
tt + 1000 s_2_7 > 0.0
tt - t_2_7 - 1000.000000 s_2_7  > -970.163108
tt + 1000 s_1_8 > 0.0
tt - t_1_8 - 1000.000000 s_1_8  > -991.114300
tt + 1000 s_2_8 > 0.0
tt - t_2_8 - 1000.000000 s_2_8  > -991.849678
s_1_1 + s_2_1 = 1
s_1_2 + s_2_2 = 1
s_1_3 + s_2_3 = 1
s_1_4 + s_2_4 = 1
s_1_5 + s_2_5 = 1
s_1_6 + s_2_6 = 1
s_1_7 + s_2_7 = 1
s_1_8 + s_2_8 = 1
s_1_1 + s_1_2 + 1000 r_1_1_2 >= 2
- s_1_1 - s_1_2 - 1000 r_1_1_2 >= -1001
t_1_1 - t_1_2 - 1000.000000 u_1_1_2 - 0.422621 s_1_2  + 0.422621 s_1_7  + 2000.000000 r_1_1_2 > -991.771456
s_2_1 + s_2_2 + 1000 r_2_1_2 >= 2
- s_2_1 - s_2_2 - 1000 r_2_1_2 >= -1001
t_2_1 - t_2_2 - 1000.000000 u_2_1_2 - 0.409624 s_2_2  + 0.409624 s_2_7  + 2000.000000 r_2_1_2 > -992.656364
s_1_1 + s_1_3 + 1000 r_1_1_3 >= 2
- s_1_1 - s_1_3 - 1000 r_1_1_3 >= -1001
t_1_1 - t_1_3 - 1000.000000 u_1_1_3 - 0.845241 s_1_3  + 0.422621 s_1_8  + 0.422621 s_1_7  + 2000.000000 r_1_1_3 > -999.720300
s_2_1 + s_2_3 + 1000 r_2_1_3 >= 2
- s_2_1 - s_2_3 - 1000 r_2_1_3 >= -1001
t_2_1 - t_2_3 - 1000.000000 u_2_1_3 - 0.819249 s_2_3  + 0.409624 s_2_8  + 0.409624 s_2_7  + 2000.000000 r_2_1_3 > -998.522583
s_1_1 + s_1_4 + 1000 r_1_1_4 >= 2
- s_1_1 - s_1_4 - 1000 r_1_1_4 >= -1001
t_1_1 - t_1_4 - 1000.000000 u_1_1_4 - 0.422621 s_1_4  + 0.422621 s_1_7  + 2000.000000 r_1_1_4 > -999.553189
s_2_1 + s_2_4 + 1000 r_2_1_4 >= 2
- s_2_1 - s_2_4 - 1000 r_2_1_4 >= -1001
t_2_1 - t_2_4 - 1000.000000 u_2_1_4 - 0.409624 s_2_4  + 0.409624 s_2_7  + 2000.000000 r_2_1_4 > -997.737556
s_1_1 + s_1_5 + 1000 r_1_1_5 >= 2
- s_1_1 - s_1_5 - 1000 r_1_1_5 >= -1001
t_1_1 - t_1_5 - 1000.000000 u_1_1_5 - 0.422621 s_1_5  + 0.422621 s_1_8  + 2000.000000 r_1_1_5 > -996.109711
s_2_1 + s_2_5 + 1000 r_2_1_5 >= 2
- s_2_1 - s_2_5 - 1000 r_2_1_5 >= -1001
t_2_1 - t_2_5 - 1000.000000 u_2_1_5 - 0.409624 s_2_5  + 0.409624 s_2_8  + 2000.000000 r_2_1_5 > -996.150847
t_1_6 - t_1_1 - 1000.845241 s_1_1  + 0.422621 s_1_8  + 0.422621 s_1_7  > -991.769767
t_1_6 - t_2_1 - 1000.819249 s_2_1  + 0.409624 s_2_8  + 0.409624 s_2_7  > -992.658028
t_2_6 - t_1_1 - 1000.845241 s_1_1  + 0.422621 s_1_8  + 0.422621 s_1_7  > -991.769767
t_2_6 - t_2_1 - 1000.819249 s_2_1  + 0.409624 s_2_8  + 0.409624 s_2_7  > -992.658028
t_1_1 - t_1_7 - 1000.000000 s_1_7  > -988.934375
t_1_1 - t_2_7 - 1000.000000 s_2_7  > -970.163108
t_2_1 - t_1_7 - 1000.000000 s_1_7  > -988.934375
t_2_1 - t_2_7 - 1000.000000 s_2_7  > -970.163108
t_1_1 - t_1_8 - 1000.000000 s_1_8  > -991.114300
t_1_1 - t_2_8 - 1000.000000 s_2_8  > -991.849678
t_2_1 - t_1_8 - 1000.000000 s_1_8  > -991.114300
t_2_1 - t_2_8 - 1000.000000 s_2_8  > -991.849678
s_1_2 + s_1_1 + 1000 r_1_1_2 >= 2
- s_1_2 - s_1_1 - 1000 r_1_1_2 >= -1001
t_1_2 - t_1_1 + 1000.000000 u_1_1_2 - 0.845241 s_1_1  + 0.422621 s_1_8  + 0.422621 s_1_7  + 2000.000000 r_1_1_2 > 8.230233
s_2_2 + s_2_1 + 1000 r_2_1_2 >= 2
- s_2_2 - s_2_1 - 1000 r_2_1_2 >= -1001
t_2_2 - t_2_1 + 1000.000000 u_2_1_2 - 0.819249 s_2_1  + 0.409624 s_2_8  + 0.409624 s_2_7  + 2000.000000 r_2_1_2 > 7.341972
s_1_2 + s_1_3 + 1000 r_1_2_3 >= 2
- s_1_2 - s_1_3 - 1000 r_1_2_3 >= -1001
t_1_2 - t_1_3 - 1000.000000 u_1_2_3 - 0.845241 s_1_3  + 0.422621 s_1_8  + 0.422621 s_1_7  + 2000.000000 r_1_2_3 > -999.720300
s_2_2 + s_2_3 + 1000 r_2_2_3 >= 2
- s_2_2 - s_2_3 - 1000 r_2_2_3 >= -1001
t_2_2 - t_2_3 - 1000.000000 u_2_2_3 - 0.819249 s_2_3  + 0.409624 s_2_8  + 0.409624 s_2_7  + 2000.000000 r_2_2_3 > -998.522583
s_1_2 + s_1_4 + 1000 r_1_2_4 >= 2
- s_1_2 - s_1_4 - 1000 r_1_2_4 >= -1001
t_1_2 - t_1_4 - 1000.000000 u_1_2_4 - 0.422621 s_1_4  + 0.422621 s_1_7  + 2000.000000 r_1_2_4 > -999.553189
s_2_2 + s_2_4 + 1000 r_2_2_4 >= 2
- s_2_2 - s_2_4 - 1000 r_2_2_4 >= -1001
t_2_2 - t_2_4 - 1000.000000 u_2_2_4 - 0.409624 s_2_4  + 0.409624 s_2_7  + 2000.000000 r_2_2_4 > -997.737556
s_1_2 + s_1_5 + 1000 r_1_2_5 >= 2
- s_1_2 - s_1_5 - 1000 r_1_2_5 >= -1001
t_1_2 - t_1_5 - 1000.000000 u_1_2_5 - 0.422621 s_1_5  + 0.422621 s_1_8  + 2000.000000 r_1_2_5 > -996.109711
s_2_2 + s_2_5 + 1000 r_2_2_5 >= 2
- s_2_2 - s_2_5 - 1000 r_2_2_5 >= -1001
t_2_2 - t_2_5 - 1000.000000 u_2_2_5 - 0.409624 s_2_5  + 0.409624 s_2_8  + 2000.000000 r_2_2_5 > -996.150847
t_1_6 - t_1_2 - 1000.422621 s_1_2  + 0.422621 s_1_7  > -991.771456
t_1_6 - t_2_2 - 1000.409624 s_2_2  + 0.409624 s_2_7  > -992.656364
t_2_6 - t_1_2 - 1000.422621 s_1_2  + 0.422621 s_1_7  > -991.771456
t_2_6 - t_2_2 - 1000.409624 s_2_2  + 0.409624 s_2_7  > -992.656364
t_1_2 - t_1_7 - 1000.000000 s_1_7  > -988.934375
t_1_2 - t_2_7 - 1000.000000 s_2_7  > -970.163108
t_2_2 - t_1_7 - 1000.000000 s_1_7  > -988.934375
t_2_2 - t_2_7 - 1000.000000 s_2_7  > -970.163108
s_1_2 + s_1_8 + 1000 r_1_2_8 >= 2
- s_1_2 - s_1_8 - 1000 r_1_2_8 >= -1001
t_1_2 - t_1_8 - 1000.000000 u_1_2_8 - 0.000000 s_1_8  + 2000.000000 r_1_2_8 > -991.114300
s_2_2 + s_2_8 + 1000 r_2_2_8 >= 2
- s_2_2 - s_2_8 - 1000 r_2_2_8 >= -1001
t_2_2 - t_2_8 - 1000.000000 u_2_2_8 - 0.000000 s_2_8  + 2000.000000 r_2_2_8 > -991.849678
s_1_3 + s_1_1 + 1000 r_1_1_3 >= 2
- s_1_3 - s_1_1 - 1000 r_1_1_3 >= -1001
t_1_3 - t_1_1 + 1000.000000 u_1_1_3 - 0.845241 s_1_1  + 0.422621 s_1_8  + 0.422621 s_1_7  + 2000.000000 r_1_1_3 > 8.230233
s_2_3 + s_2_1 + 1000 r_2_1_3 >= 2
- s_2_3 - s_2_1 - 1000 r_2_1_3 >= -1001
t_2_3 - t_2_1 + 1000.000000 u_2_1_3 - 0.819249 s_2_1  + 0.409624 s_2_8  + 0.409624 s_2_7  + 2000.000000 r_2_1_3 > 7.341972
s_1_3 + s_1_2 + 1000 r_1_2_3 >= 2
- s_1_3 - s_1_2 - 1000 r_1_2_3 >= -1001
t_1_3 - t_1_2 + 1000.000000 u_1_2_3 - 0.422621 s_1_2  + 0.422621 s_1_7  + 2000.000000 r_1_2_3 > 8.228544
s_2_3 + s_2_2 + 1000 r_2_2_3 >= 2
- s_2_3 - s_2_2 - 1000 r_2_2_3 >= -1001
t_2_3 - t_2_2 + 1000.000000 u_2_2_3 - 0.409624 s_2_2  + 0.409624 s_2_7  + 2000.000000 r_2_2_3 > 7.343636
s_1_3 + s_1_4 + 1000 r_1_3_4 >= 2
- s_1_3 - s_1_4 - 1000 r_1_3_4 >= -1001
t_1_3 - t_1_4 - 1000.000000 u_1_3_4 - 0.422621 s_1_4  + 0.422621 s_1_7  + 2000.000000 r_1_3_4 > -999.553189
s_2_3 + s_2_4 + 1000 r_2_3_4 >= 2
- s_2_3 - s_2_4 - 1000 r_2_3_4 >= -1001
t_2_3 - t_2_4 - 1000.000000 u_2_3_4 - 0.409624 s_2_4  + 0.409624 s_2_7  + 2000.000000 r_2_3_4 > -997.737556
s_1_3 + s_1_5 + 1000 r_1_3_5 >= 2
- s_1_3 - s_1_5 - 1000 r_1_3_5 >= -1001
t_1_3 - t_1_5 - 1000.000000 u_1_3_5 - 0.422621 s_1_5  + 0.422621 s_1_8  + 2000.000000 r_1_3_5 > -996.109711
s_2_3 + s_2_5 + 1000 r_2_3_5 >= 2
- s_2_3 - s_2_5 - 1000 r_2_3_5 >= -1001
t_2_3 - t_2_5 - 1000.000000 u_2_3_5 - 0.409624 s_2_5  + 0.409624 s_2_8  + 2000.000000 r_2_3_5 > -996.150847
t_1_6 - t_1_3 - 1000.845241 s_1_3  + 0.422621 s_1_8  + 0.422621 s_1_7  > -999.720300
t_1_6 - t_2_3 - 1000.819249 s_2_3  + 0.409624 s_2_8  + 0.409624 s_2_7  > -998.522583
t_2_6 - t_1_3 - 1000.845241 s_1_3  + 0.422621 s_1_8  + 0.422621 s_1_7  > -999.720300
t_2_6 - t_2_3 - 1000.819249 s_2_3  + 0.409624 s_2_8  + 0.409624 s_2_7  > -998.522583
t_1_3 - t_1_7 - 1000.000000 s_1_7  > -988.934375
t_1_3 - t_2_7 - 1000.000000 s_2_7  > -970.163108
t_2_3 - t_1_7 - 1000.000000 s_1_7  > -988.934375
t_2_3 - t_2_7 - 1000.000000 s_2_7  > -970.163108
t_1_3 - t_1_8 - 1000.000000 s_1_8  > -991.114300
t_1_3 - t_2_8 - 1000.000000 s_2_8  > -991.849678
t_2_3 - t_1_8 - 1000.000000 s_1_8  > -991.114300
t_2_3 - t_2_8 - 1000.000000 s_2_8  > -991.849678
s_1_4 + s_1_1 + 1000 r_1_1_4 >= 2
- s_1_4 - s_1_1 - 1000 r_1_1_4 >= -1001
t_1_4 - t_1_1 + 1000.000000 u_1_1_4 - 0.845241 s_1_1  + 0.422621 s_1_8  + 0.422621 s_1_7  + 2000.000000 r_1_1_4 > 8.230233
s_2_4 + s_2_1 + 1000 r_2_1_4 >= 2
- s_2_4 - s_2_1 - 1000 r_2_1_4 >= -1001
t_2_4 - t_2_1 + 1000.000000 u_2_1_4 - 0.819249 s_2_1  + 0.409624 s_2_8  + 0.409624 s_2_7  + 2000.000000 r_2_1_4 > 7.341972
s_1_4 + s_1_2 + 1000 r_1_2_4 >= 2
- s_1_4 - s_1_2 - 1000 r_1_2_4 >= -1001
t_1_4 - t_1_2 + 1000.000000 u_1_2_4 - 0.422621 s_1_2  + 0.422621 s_1_7  + 2000.000000 r_1_2_4 > 8.228544
s_2_4 + s_2_2 + 1000 r_2_2_4 >= 2
- s_2_4 - s_2_2 - 1000 r_2_2_4 >= -1001
t_2_4 - t_2_2 + 1000.000000 u_2_2_4 - 0.409624 s_2_2  + 0.409624 s_2_7  + 2000.000000 r_2_2_4 > 7.343636
s_1_4 + s_1_3 + 1000 r_1_3_4 >= 2
- s_1_4 - s_1_3 - 1000 r_1_3_4 >= -1001
t_1_4 - t_1_3 + 1000.000000 u_1_3_4 - 0.845241 s_1_3  + 0.422621 s_1_8  + 0.422621 s_1_7  + 2000.000000 r_1_3_4 > 0.279700
s_2_4 + s_2_3 + 1000 r_2_3_4 >= 2
- s_2_4 - s_2_3 - 1000 r_2_3_4 >= -1001
t_2_4 - t_2_3 + 1000.000000 u_2_3_4 - 0.819249 s_2_3  + 0.409624 s_2_8  + 0.409624 s_2_7  + 2000.000000 r_2_3_4 > 1.477417
s_1_4 + s_1_5 + 1000 r_1_4_5 >= 2
- s_1_4 - s_1_5 - 1000 r_1_4_5 >= -1001
t_1_4 - t_1_5 - 1000.000000 u_1_4_5 - 0.422621 s_1_5  + 0.422621 s_1_8  + 2000.000000 r_1_4_5 > -996.109711
s_2_4 + s_2_5 + 1000 r_2_4_5 >= 2
- s_2_4 - s_2_5 - 1000 r_2_4_5 >= -1001
t_2_4 - t_2_5 - 1000.000000 u_2_4_5 - 0.409624 s_2_5  + 0.409624 s_2_8  + 2000.000000 r_2_4_5 > -996.150847
t_1_6 - t_1_4 - 1000.422621 s_1_4  + 0.422621 s_1_7  > -999.553189
t_1_6 - t_2_4 - 1000.409624 s_2_4  + 0.409624 s_2_7  > -997.737556
t_2_6 - t_1_4 - 1000.422621 s_1_4  + 0.422621 s_1_7  > -999.553189
t_2_6 - t_2_4 - 1000.409624 s_2_4  + 0.409624 s_2_7  > -997.737556
t_1_4 - t_1_7 - 1000.000000 s_1_7  > -988.934375
t_1_4 - t_2_7 - 1000.000000 s_2_7  > -970.163108
t_2_4 - t_1_7 - 1000.000000 s_1_7  > -988.934375
t_2_4 - t_2_7 - 1000.000000 s_2_7  > -970.163108
s_1_4 + s_1_8 + 1000 r_1_4_8 >= 2
- s_1_4 - s_1_8 - 1000 r_1_4_8 >= -1001
t_1_4 - t_1_8 - 1000.000000 u_1_4_8 - 0.000000 s_1_8  + 2000.000000 r_1_4_8 > -991.114300
s_2_4 + s_2_8 + 1000 r_2_4_8 >= 2
- s_2_4 - s_2_8 - 1000 r_2_4_8 >= -1001
t_2_4 - t_2_8 - 1000.000000 u_2_4_8 - 0.000000 s_2_8  + 2000.000000 r_2_4_8 > -991.849678
s_1_5 + s_1_1 + 1000 r_1_1_5 >= 2
- s_1_5 - s_1_1 - 1000 r_1_1_5 >= -1001
t_1_5 - t_1_1 + 1000.000000 u_1_1_5 - 0.845241 s_1_1  + 0.422621 s_1_8  + 0.422621 s_1_7  + 2000.000000 r_1_1_5 > 8.230233
s_2_5 + s_2_1 + 1000 r_2_1_5 >= 2
- s_2_5 - s_2_1 - 1000 r_2_1_5 >= -1001
t_2_5 - t_2_1 + 1000.000000 u_2_1_5 - 0.819249 s_2_1  + 0.409624 s_2_8  + 0.409624 s_2_7  + 2000.000000 r_2_1_5 > 7.341972
s_1_5 + s_1_2 + 1000 r_1_2_5 >= 2
- s_1_5 - s_1_2 - 1000 r_1_2_5 >= -1001
t_1_5 - t_1_2 + 1000.000000 u_1_2_5 - 0.422621 s_1_2  + 0.422621 s_1_7  + 2000.000000 r_1_2_5 > 8.228544
s_2_5 + s_2_2 + 1000 r_2_2_5 >= 2
- s_2_5 - s_2_2 - 1000 r_2_2_5 >= -1001
t_2_5 - t_2_2 + 1000.000000 u_2_2_5 - 0.409624 s_2_2  + 0.409624 s_2_7  + 2000.000000 r_2_2_5 > 7.343636
s_1_5 + s_1_3 + 1000 r_1_3_5 >= 2
- s_1_5 - s_1_3 - 1000 r_1_3_5 >= -1001
t_1_5 - t_1_3 + 1000.000000 u_1_3_5 - 0.845241 s_1_3  + 0.422621 s_1_8  + 0.422621 s_1_7  + 2000.000000 r_1_3_5 > 0.279700
s_2_5 + s_2_3 + 1000 r_2_3_5 >= 2
- s_2_5 - s_2_3 - 1000 r_2_3_5 >= -1001
t_2_5 - t_2_3 + 1000.000000 u_2_3_5 - 0.819249 s_2_3  + 0.409624 s_2_8  + 0.409624 s_2_7  + 2000.000000 r_2_3_5 > 1.477417
s_1_5 + s_1_4 + 1000 r_1_4_5 >= 2
- s_1_5 - s_1_4 - 1000 r_1_4_5 >= -1001
t_1_5 - t_1_4 + 1000.000000 u_1_4_5 - 0.422621 s_1_4  + 0.422621 s_1_7  + 2000.000000 r_1_4_5 > 0.446811
s_2_5 + s_2_4 + 1000 r_2_4_5 >= 2
- s_2_5 - s_2_4 - 1000 r_2_4_5 >= -1001
t_2_5 - t_2_4 + 1000.000000 u_2_4_5 - 0.409624 s_2_4  + 0.409624 s_2_7  + 2000.000000 r_2_4_5 > 2.262444
t_1_6 - t_1_5 - 1000.422621 s_1_5  + 0.422621 s_1_8  > -996.109711
t_1_6 - t_2_5 - 1000.409624 s_2_5  + 0.409624 s_2_8  > -996.150847
t_2_6 - t_1_5 - 1000.422621 s_1_5  + 0.422621 s_1_8  > -996.109711
t_2_6 - t_2_5 - 1000.409624 s_2_5  + 0.409624 s_2_8  > -996.150847
s_1_5 + s_1_7 + 1000 r_1_5_7 >= 2
- s_1_5 - s_1_7 - 1000 r_1_5_7 >= -1001
t_1_5 - t_1_7 - 1000.000000 u_1_5_7 - 0.000000 s_1_7  + 2000.000000 r_1_5_7 > -988.934375
s_2_5 + s_2_7 + 1000 r_2_5_7 >= 2
- s_2_5 - s_2_7 - 1000 r_2_5_7 >= -1001
t_2_5 - t_2_7 - 1000.000000 u_2_5_7 - 0.000000 s_2_7  + 2000.000000 r_2_5_7 > -970.163108
t_1_5 - t_1_8 - 1000.000000 s_1_8  > -991.114300
t_1_5 - t_2_8 - 1000.000000 s_2_8  > -991.849678
t_2_5 - t_1_8 - 1000.000000 s_1_8  > -991.114300
t_2_5 - t_2_8 - 1000.000000 s_2_8  > -991.849678
t_1_6 - t_1_7 - 1000.000000 s_1_7  > -988.934375
t_1_6 - t_2_7 - 1000.000000 s_2_7  > -970.163108
t_2_6 - t_1_7 - 1000.000000 s_1_7  > -988.934375
t_2_6 - t_2_7 - 1000.000000 s_2_7  > -970.163108
s_1_7 + s_1_5 + 1000 r_1_5_7 >= 2
- s_1_7 - s_1_5 - 1000 r_1_5_7 >= -1001
t_1_7 - t_1_5 + 1000.000000 u_1_5_7 - 0.422621 s_1_5  + 0.422621 s_1_8  + 2000.000000 r_1_5_7 > 3.890289
s_2_7 + s_2_5 + 1000 r_2_5_7 >= 2
- s_2_7 - s_2_5 - 1000 r_2_5_7 >= -1001
t_2_7 - t_2_5 + 1000.000000 u_2_5_7 - 0.409624 s_2_5  + 0.409624 s_2_8  + 2000.000000 r_2_5_7 > 3.849153
s_1_7 + s_1_8 + 1000 r_1_7_8 >= 2
- s_1_7 - s_1_8 - 1000 r_1_7_8 >= -1001
t_1_7 - t_1_8 - 1000.000000 u_1_7_8 - 0.000000 s_1_8  + 2000.000000 r_1_7_8 > -991.114300
s_2_7 + s_2_8 + 1000 r_2_7_8 >= 2
- s_2_7 - s_2_8 - 1000 r_2_7_8 >= -1001
t_2_7 - t_2_8 - 1000.000000 u_2_7_8 - 0.000000 s_2_8  + 2000.000000 r_2_7_8 > -991.849678
s_1_8 + s_1_2 + 1000 r_1_2_8 >= 2
- s_1_8 - s_1_2 - 1000 r_1_2_8 >= -1001
t_1_8 - t_1_2 + 1000.000000 u_1_2_8 - 0.422621 s_1_2  + 0.422621 s_1_7  + 2000.000000 r_1_2_8 > 8.228544
s_2_8 + s_2_2 + 1000 r_2_2_8 >= 2
- s_2_8 - s_2_2 - 1000 r_2_2_8 >= -1001
t_2_8 - t_2_2 + 1000.000000 u_2_2_8 - 0.409624 s_2_2  + 0.409624 s_2_7  + 2000.000000 r_2_2_8 > 7.343636
s_1_8 + s_1_4 + 1000 r_1_4_8 >= 2
- s_1_8 - s_1_4 - 1000 r_1_4_8 >= -1001
t_1_8 - t_1_4 + 1000.000000 u_1_4_8 - 0.422621 s_1_4  + 0.422621 s_1_7  + 2000.000000 r_1_4_8 > 0.446811
s_2_8 + s_2_4 + 1000 r_2_4_8 >= 2
- s_2_8 - s_2_4 - 1000 r_2_4_8 >= -1001
t_2_8 - t_2_4 + 1000.000000 u_2_4_8 - 0.409624 s_2_4  + 0.409624 s_2_7  + 2000.000000 r_2_4_8 > 2.262444
s_1_8 + s_1_7 + 1000 r_1_7_8 >= 2
- s_1_8 - s_1_7 - 1000 r_1_7_8 >= -1001
t_1_8 - t_1_7 + 1000.000000 u_1_7_8 - 0.000000 s_1_7  + 2000.000000 r_1_7_8 > 11.065625
s_2_8 + s_2_7 + 1000 r_2_7_8 >= 2
- s_2_8 - s_2_7 - 1000 r_2_7_8 >= -1001
t_2_8 - t_2_7 + 1000.000000 u_2_7_8 - 0.000000 s_2_7  + 2000.000000 r_2_7_8 > 29.836892
Binary
s_1_1
s_2_1
s_1_2
s_2_2
s_1_3
s_2_3
s_1_4
s_2_4
s_1_5
s_2_5
s_1_6
s_2_6
s_1_7
s_2_7
s_1_8
s_2_8
u_1_1_2
r_1_1_2
u_2_1_2
r_2_1_2
u_1_1_3
r_1_1_3
u_2_1_3
r_2_1_3
u_1_1_4
r_1_1_4
u_2_1_4
r_2_1_4
u_1_1_5
r_1_1_5
u_2_1_5
r_2_1_5
u_1_2_3
r_1_2_3
u_2_2_3
r_2_2_3
u_1_2_4
r_1_2_4
u_2_2_4
r_2_2_4
u_1_2_5
r_1_2_5
u_2_2_5
r_2_2_5
u_1_2_8
r_1_2_8
u_2_2_8
r_2_2_8
u_1_3_4
r_1_3_4
u_2_3_4
r_2_3_4
u_1_3_5
r_1_3_5
u_2_3_5
r_2_3_5
u_1_4_5
r_1_4_5
u_2_4_5
r_2_4_5
u_1_4_8
r_1_4_8
u_2_4_8
r_2_4_8
u_1_5_7
r_1_5_7
u_2_5_7
r_2_5_7
u_1_7_8
r_1_7_8
u_2_7_8
r_2_7_8

End
